n = 100;
C = 23808;
w = [523,290,58,534,643,169,5,232,724,675,324,886,854,314,105,183,629,468,925,215,225,188,949,503,325,368,462,819,1000,495,959,132,715,353,270,439,259,155,597,37,783,858,398,149,804,776,533,535,583,294,469,786,618,977,494,457,699,24,782,336,425,116,925,126,657,696,125,254,552,740,889,646,345,725,149,571,610,39,296,140,850,269,997,575,13,720,224,465,300,447,631,178,390,350,502,336,659,506,495,323];
p = [523,290,58,534,643,169,5,232,724,675,324,886,854,314,105,183,629,468,925,215,225,188,949,503,325,368,462,819,1000,495,959,132,715,353,270,439,259,155,597,37,783,858,398,149,804,776,533,535,583,294,469,786,618,977,494,457,699,24,782,336,425,116,925,126,657,696,125,254,552,740,889,646,345,725,149,571,610,39,296,140,850,269,997,575,13,720,224,465,300,447,631,178,390,350,502,336,659,506,495,323];
